Version identifier: 12.10.0.0 | 2019-11-26 | 843d4de
CPXPARAM_WorkMem                                 28672
Tried aggregator 2 times.
Aggregator did 50 substitutions.
Reduced MIP has 163 rows, 180 columns, and 771 nonzeros.
Reduced MIP has 180 binaries, 0 generals, 0 SOSs, and 0 indicators.
Presolve time = 0,00 sec. (0,76 ticks)
Found incumbent of value 882,000000 after 0,00 sec. (1,24 ticks)
Probing time = 0,00 sec. (0,37 ticks)
Tried aggregator 1 time.
Detecting symmetries...
MIP Presolve eliminated 21 rows and 0 columns.
MIP Presolve added 42 rows and 0 columns.
Reduced MIP has 184 rows, 180 columns, and 792 nonzeros.
Reduced MIP has 180 binaries, 0 generals, 0 SOSs, and 0 indicators.
Presolve time = 0,00 sec. (0,92 ticks)
Probing time = 0,00 sec. (0,36 ticks)
Clique table members: 571.
MIP emphasis: balance optimality and feasibility.
MIP search method: dynamic search.
Parallel mode: deterministic, using up to 16 threads.
Root relaxation solution time = 0,00 sec. (0,47 ticks)

        Nodes                                         Cuts/
   Node  Left     Objective  IInf  Best Integer    Best Bound    ItCnt     Gap

*     0+    0                          882,0000        0,0000           100,00%
*     0+    0                          642,0000        0,0000           100,00%
*     0+    0                          563,0000        0,0000           100,00%
      0     0      294,0000   168      563,0000      294,0000       45   47,78%
      0     0      295,3606   168      563,0000     Cuts: 147       94   47,54%
      0     0      299,0888   168      563,0000     Cuts: 146      132   46,88%
      0     0      301,2204   168      563,0000     Cuts: 148      146   46,50%
      0     0      302,0597   168      563,0000       Cuts: 6      159   46,35%
*     0+    0                          546,0000      302,0597            44,68%
      0     0      302,1945   168      546,0000      Fract: 1      160   44,65%
Detecting symmetries...
      0     0      302,3873   168      546,0000      Fract: 1      162   44,62%
*     0+    0                          518,0000      302,3873            41,62%
Detecting symmetries...
      0     2      302,3873   177      518,0000      408,0000      162   21,24%
Elapsed time = 0,10 sec. (35,30 ticks, tree = 0,02 MB, solutions = 5)

Clique cuts applied:  55
Cover cuts applied:  185
Implied bound cuts applied:  8
Mixed integer rounding cuts applied:  66
Gomory fractional cuts applied:  9

Root node processing (before b&c):
  Real time             =    0,09 sec. (35,10 ticks)
Parallel b&c, 16 threads:
  Real time             =    0,05 sec. (30,89 ticks)
  Sync time (average)   =    0,02 sec.
  Wait time (average)   =    0,00 sec.
                          ------------
Total (root+branch&cut) =    0,14 sec. (65,99 ticks)
